[[40, 50, 41, 32, 31, 30, 29, 37, 28, 19, 21, 22, 20, 11, 10, 2, 3, 12, 13, 4, 14, 5, 6, 7, 8, 9, 18, 17, 16, 15, 23, 24, 25, 26, 27, 35, 36, 44, 34, 33, 43, 42, 45, 51, 52, 53, 54, 63], [60, 61, 62, 71, 72, 81, 80, 70, 69, 68, 78, 77, 79, 88, 89, 90, 99, 98, 97, 96, 87, 86, 95, 94, 93, 92, 91, 82, 83, 84, 85, 76, 75, 73, 74, 64, 65, 56, 66, 67, 59, 58, 49, 57, 55, 46, 47, 38, 39, 48]]